WARNING: for repeatability, setting FPU to use double precision
============================[ Problem Statistics ]=============================
|                                                                             |
|  Number of variables:         15480                                         |
|  Number of clauses:           86661                                         |
|  Parse time:                   0.02 s                                       |
|                                                                             |
c ============================[ Search Statistics ]==============================
c | Conflicts |          ORIGINAL         |          LEARNT          | Progress |
c |           |    Vars  Clauses Literals |    Limit  Clauses Lit/Cl |          |
c ===============================================================================
c Switched to VSIDS.
c Switched to LRB.
c Switched to VSIDS.
c Switched to LRB.
c Switched to VSIDS.
c Switched to LRB.
c Switched to VSIDS.
c Switched to LRB.
c Switched to VSIDS.
c Switched to LRB.
c Switched to VSIDS.
c Switched to LRB.
c Switched to VSIDS.
c Switched to LRB.
c Switched to VSIDS.
c Switched to LRB.
c Switched to VSIDS.
c Switched to LRB.
c Switched to VSIDS.
c Switched to LRB.
c Switched to VSIDS.
c Switched to LRB.
c Switched to VSIDS.
c Switched to LRB.
c Switched to VSIDS.
c Switched to LRB.
c Switched to VSIDS.
c Switched to LRB.
c Switched to VSIDS.
c Switched to LRB.
c Switched to VSIDS.
c Switched to LRB.
c Switched to VSIDS.
c ===============================================================================
restarts                  : 34816
conflicts                 : 11266256       (3173 /sec)
decisions                 : 21758648       (0.00 % random) (6127 /sec)
propagations              : 7305141070     (2057089 /sec)
conflict literals         : 832145309      (29.05 % deleted)

conflicts w/ DIP found    : 7531798        (66.85 % of conflicts)
conflicts w/ dangerous DIP: 0              (0.00 % of conflicts)
conflicts w/ DIP-learning : 12425          (0.11 % of conflicts)
decisions on ext vars     : 21557          (0.10 % of decisions)
total ext vars            : 2346        
tried delete ext vars     : 0           
deleted ext vars          : 0           
max ext vars              : 2346        

Memory used               : 378.00 MB
CPU time                  : 3551.2 s
DIP computation time      : 94.0359 s (2.65 % of total time)
ER_sel time               : 14.4861 s
ER_add time               : 0.014756 s
ER_delC time              : 0 s
ER_delV time              : 0 s
ER_sub time               : 17.0758 s
ER_stat time              : 0 s

INDETERMINATE
